1 0 0
2 3 5
3 2.5 9
4 48 16
5 48 17
6 69 16
7 70 16
8 64 13
9 3 -22
10 2.5 1
11 -13 11.5
12 -20 45
13 -9 52
14 -8.5 53
15 -8 52
16 2 2
17 -2 9
18 -10 20
19 -20 19
20 -15 -21
21 -5 -9
22 -4.5 -9
23 -52 -36
24 -53 -36
25 0 0.01
26 -30 -18
27 -51 -35
28 81 9
29 84 -99
30 82 -6
31 40 -12
32 50 -7
33 51 -8
34 63 -17
35 45 -1
36 54 8.5
37 29 4
38 21 3
39 22 2
40 39 -3
41 39.5 -3
42 40 -11
43 28 -2
44 24 -18
45 24 -19